c Este es el tablero 0 en CNF
p cnf 1 0
1 0



c Este es el tablero 1 en CNF
p cnf 1 0
1 0 




c Este es el tablero 2 en CNF
p cnf 64 87
1 0 6 0 11 0 16 0 19 0 24 0 30 0 36 0 55 0 61 0
25 26 27 28 0 
37 38 39 40 0 
41 42 43 44 0 
45 46 47 48 0 
49 50 51 52 0 
57 58 59 60 0 

-25 -17 0 -25 -21 0 -25 -29 0 -26 -18 0 -26 -22 0 -26 -30 0 -27 -19 0 -27 -23 0 -27 -31 0 -28 -20 0 -28 -24 0 -28 -32 0 
-37 -33 0 -37 -41 0 -37 -45 0 -38 -34 0 -38 -42 0 -38 -46 0 -39 -35 0 -39 -43 0 -39 -47 0 -40 -36 0 -40 -44 0 -40 -48 0 
-41 -33 0 -41 -37 0 -41 -45 0 -42 -34 0 -42 -38 0 -42 -46 0 -43 -35 0 -43 -39 0 -43 -47 0 -44 -36 0 -44 -40 0 -44 -48 0 
-45 -33 0 -45 -37 0 -45 -41 0 -46 -34 0 -46 -38 0 -46 -42 0 -47 -35 0 -47 -39 0 -47 -43 0 -48 -36 0 -48 -40 0 -48 -44 0 
-49 -53 0 -49 -57 0 -49 -61 0 -50 -54 0 -50 -58 0 -50 -62 0 -51 -55 0 -51 -59 0 -51 -63 0 -52 -56 0 -52 -60 0 -52 -64 0 
-57 -49 0 -57 -53 0 -57 -61 0 -58 -50 0 -58 -54 0 -58 -62 0 -59 -51 0 -59 -55 0 -59 -63 0 -60 -52 0 -60 -56 0 -60 -64 0 


